Maximize
  6.10921e-05 Z_311_0_0 + 0.0110643798441712 Z_311_0_1
   + 0.8847788081961975 Z_311_0_2 + 0.00150302769000394 Z_311_0_3
   + 0.00259269214519998 Z_311_0_4
Subject To
 constraint1_3110: Z_311_0_0 + Z_311_0_1 + Z_311_0_2 + Z_311_0_3
   + Z_311_0_4 <= 1
 constraint2_3840: <= 1
 constraint2_3841: <= 1
 constraint2_3842: <= 1
 constraint2_3843: <= 1
 constraint2_3110: Z_311_0_0 <= 1
 constraint2_3111: Z_311_0_1 <= 1
 constraint2_3112: Z_311_0_2 <= 1
 constraint2_3113: Z_311_0_3 <= 1
Bounds
Binaries
 Z_311_0_0 Z_311_0_1 Z_311_0_2 Z_311_0_3 Z_311_0_4
End
